% Auto-generated by scripts/generate_dzn.py
% problem_type   = regex
% instance       = regex_82
% source_json    = instances_json/2_high_blowup/regex_82.json
% blowup         = 35.0
% representation = DFA

mode = 0;

var_count = 43;
Q = 595;
S = 3;
q0 = 1;
F = {407, 408, 409, 410, 411, 412, 413, 414, 415, 416, 417, 418, 419, 420, 421, 422, 423, 424, 425, 426, 427, 428, 429, 430, 431, 432, 433, 434, 435, 436, 437, 438, 439, 440, 441, 442, 443, 444, 445, 446, 447, 448, 449, 450, 451, 452, 453, 454, 455, 456, 457, 458, 459, 460, 461, 462, 463, 464, 465, 466, 467, 468, 469, 470, 471, 472, 473, 474, 475, 476, 477, 478, 479, 480, 481, 482, 483, 484, 485, 486, 487, 488, 489, 490, 491, 492, 493, 494, 495, 496, 497, 498, 499, 500, 501, 502, 503, 504, 505, 506, 507, 508, 509, 510, 511, 512, 513, 514, 515, 516, 517, 518, 519, 520, 521, 522, 523, 524, 525, 526, 527, 528, 529, 530, 531, 532, 533, 534, 535, 536, 537, 538, 539, 540, 541, 542, 543, 544, 545, 546, 547, 548, 549, 550, 551, 552, 553, 554, 555, 556, 557, 558, 559, 560, 561, 562, 563, 564, 565, 566, 567, 568, 569, 570, 571, 572, 573, 574, 575, 576, 577, 578, 579, 580, 581, 582, 583, 584, 585, 586, 587, 588, 589, 590, 591, 592, 593, 594, 595};
d_dfa = array2d(1..595, 1..3, [
  2, 1, 1,
  2, 1, 3,
  2, 4, 1,
  6, 5, 5,
  8, 7, 7,
  8, 7, 9,
  11, 10, 10,
  11, 10, 12,
  11, 13, 10,
  15, 14, 14,
  15, 14, 16,
  15, 17, 14,
  19, 18, 18,
  21, 20, 20,
  21, 20, 22,
  21, 23, 20,
  25, 24, 24,
  27, 26, 26,
  27, 26, 28,
  30, 29, 29,
  30, 29, 31,
  30, 32, 29,
  34, 33, 33,
  36, 35, 35,
  36, 35, 37,
  39, 38, 38,
  39, 38, 40,
  39, 41, 38,
  43, 42, 42,
  43, 42, 44,
  43, 45, 42,
  47, 46, 46,
  49, 48, 48,
  49, 48, 50,
  52, 51, 51,
  52, 51, 53,
  52, 54, 51,
  56, 55, 55,
  56, 55, 57,
  56, 58, 55,
  60, 59, 59,
  62, 61, 61,
  62, 61, 63,
  62, 64, 61,
  66, 65, 65,
  68, 67, 67,
  68, 67, 69,
  71, 70, 70,
  71, 70, 72,
  71, 73, 70,
  75, 74, 74,
  75, 74, 76,
  75, 77, 74,
  79, 78, 78,
  81, 80, 80,
  81, 80, 82,
  81, 83, 80,
  85, 84, 84,
  87, 86, 86,
  87, 86, 88,
  90, 89, 89,
  90, 89, 91,
  90, 92, 89,
  94, 93, 93,
  96, 95, 95,
  96, 95, 97,
  99, 98, 98,
  99, 98, 100,
  99, 101, 98,
  103, 102, 102,
  103, 102, 104,
  103, 105, 102,
  107, 106, 106,
  109, 108, 108,
  109, 108, 110,
  109, 111, 108,
  113, 112, 112,
  115, 114, 114,
  115, 114, 116,
  118, 117, 117,
  118, 117, 119,
  118, 120, 117,
  122, 121, 121,
  124, 123, 123,
  124, 123, 125,
  127, 126, 126,
  127, 126, 128,
  127, 129, 126,
  131, 130, 130,
  131, 130, 132,
  131, 133, 130,
  135, 134, 134,
  137, 136, 136,
  137, 136, 138,
  140, 139, 139,
  140, 139, 141,
  140, 142, 139,
  144, 143, 143,
  144, 143, 145,
  144, 146, 143,
  148, 147, 147,
  150, 149, 149,
  150, 149, 151,
  150, 152, 149,
  154, 153, 153,
  156, 155, 155,
  156, 155, 157,
  159, 158, 158,
  159, 158, 160,
  159, 161, 158,
  163, 162, 162,
  165, 164, 164,
  165, 164, 166,
  168, 167, 167,
  168, 167, 169,
  168, 170, 167,
  172, 171, 171,
  172, 171, 173,
  172, 174, 171,
  176, 175, 175,
  178, 177, 177,
  178, 177, 179,
  181, 180, 180,
  181, 180, 182,
  181, 183, 180,
  185, 184, 184,
  185, 184, 186,
  185, 187, 184,
  189, 188, 188,
  191, 190, 190,
  191, 190, 192,
  191, 193, 190,
  195, 194, 194,
  197, 196, 196,
  197, 196, 198,
  200, 199, 199,
  200, 199, 201,
  200, 202, 199,
  204, 203, 203,
  204, 203, 205,
  204, 206, 203,
  208, 207, 207,
  210, 209, 209,
  210, 209, 211,
  210, 212, 209,
  214, 213, 213,
  216, 215, 215,
  216, 215, 217,
  219, 218, 218,
  219, 218, 220,
  219, 221, 218,
  223, 222, 222,
  225, 224, 224,
  225, 224, 226,
  228, 227, 227,
  228, 227, 229,
  228, 230, 227,
  232, 231, 231,
  232, 231, 233,
  232, 234, 231,
  236, 235, 235,
  238, 237, 237,
  238, 237, 239,
  241, 240, 240,
  241, 240, 242,
  241, 243, 240,
  245, 244, 244,
  245, 244, 246,
  245, 247, 244,
  249, 248, 248,
  251, 250, 250,
  251, 250, 252,
  251, 253, 250,
  255, 254, 254,
  257, 256, 256,
  257, 256, 258,
  260, 259, 259,
  260, 259, 261,
  260, 262, 259,
  264, 263, 263,
  264, 263, 265,
  264, 266, 263,
  268, 267, 267,
  270, 269, 269,
  270, 269, 271,
  270, 272, 269,
  274, 273, 273,
  276, 275, 275,
  276, 275, 277,
  279, 278, 278,
  279, 278, 280,
  279, 281, 278,
  283, 282, 282,
  285, 284, 284,
  285, 284, 286,
  288, 287, 287,
  288, 287, 289,
  288, 290, 287,
  292, 291, 291,
  292, 291, 293,
  292, 294, 291,
  296, 295, 295,
  298, 297, 297,
  298, 297, 299,
  298, 300, 297,
  302, 301, 301,
  304, 303, 303,
  304, 303, 305,
  307, 306, 306,
  307, 306, 308,
  307, 309, 306,
  311, 310, 310,
  313, 312, 312,
  313, 312, 314,
  316, 315, 315,
  316, 315, 317,
  316, 318, 315,
  320, 319, 319,
  320, 319, 321,
  320, 322, 319,
  324, 323, 323,
  326, 325, 325,
  326, 325, 327,
  329, 328, 328,
  329, 328, 330,
  329, 331, 328,
  333, 332, 332,
  333, 332, 334,
  333, 335, 332,
  337, 336, 336,
  339, 338, 338,
  339, 338, 340,
  339, 341, 338,
  343, 342, 342,
  345, 344, 344,
  345, 344, 346,
  348, 347, 347,
  348, 347, 349,
  348, 350, 347,
  352, 351, 351,
  352, 351, 353,
  352, 354, 351,
  356, 355, 355,
  358, 357, 357,
  358, 357, 359,
  358, 360, 357,
  362, 361, 361,
  364, 363, 363,
  364, 363, 365,
  367, 366, 366,
  367, 366, 368,
  367, 369, 366,
  371, 370, 370,
  373, 372, 372,
  373, 372, 374,
  376, 375, 375,
  376, 375, 377,
  376, 378, 375,
  380, 379, 379,
  380, 379, 381,
  380, 382, 379,
  384, 383, 383,
  386, 385, 385,
  386, 385, 387,
  386, 388, 385,
  390, 389, 389,
  392, 391, 391,
  392, 391, 393,
  395, 394, 394,
  395, 394, 396,
  395, 397, 394,
  399, 398, 398,
  401, 400, 400,
  401, 400, 402,
  404, 403, 403,
  404, 403, 405,
  404, 406, 403,
  408, 407, 407,
  408, 407, 409,
  408, 410, 407,
  412, 411, 411,
  414, 413, 413,
  414, 413, 415,
  417, 416, 416,
  417, 416, 418,
  417, 419, 416,
  421, 420, 420,
  421, 420, 422,
  421, 423, 420,
  425, 424, 424,
  427, 426, 426,
  427, 426, 428,
  427, 429, 426,
  431, 430, 430,
  433, 432, 432,
  433, 432, 434,
  436, 435, 435,
  436, 435, 437,
  436, 438, 435,
  440, 439, 439,
  442, 441, 441,
  442, 441, 443,
  445, 444, 444,
  445, 444, 446,
  445, 447, 444,
  449, 448, 448,
  449, 448, 450,
  449, 451, 448,
  453, 452, 452,
  455, 454, 454,
  455, 454, 456,
  458, 457, 457,
  458, 457, 459,
  458, 460, 457,
  462, 461, 461,
  462, 461, 463,
  462, 464, 461,
  466, 465, 465,
  468, 467, 467,
  468, 467, 469,
  468, 470, 467,
  472, 471, 471,
  474, 473, 473,
  474, 473, 475,
  477, 476, 476,
  477, 476, 478,
  477, 479, 476,
  481, 480, 480,
  481, 480, 482,
  481, 483, 480,
  485, 484, 484,
  487, 486, 486,
  487, 486, 488,
  487, 489, 486,
  491, 490, 490,
  493, 492, 492,
  493, 492, 494,
  496, 495, 495,
  496, 495, 497,
  496, 498, 495,
  500, 499, 499,
  502, 501, 501,
  502, 501, 503,
  505, 504, 504,
  505, 504, 506,
  505, 507, 504,
  509, 508, 508,
  509, 508, 510,
  509, 511, 508,
  513, 512, 512,
  515, 514, 514,
  515, 514, 516,
  515, 517, 514,
  519, 518, 518,
  521, 520, 520,
  521, 520, 522,
  524, 523, 523,
  524, 523, 525,
  524, 526, 523,
  528, 527, 527,
  530, 529, 529,
  530, 529, 531,
  533, 532, 532,
  533, 532, 534,
  533, 535, 532,
  537, 536, 536,
  537, 536, 538,
  537, 539, 536,
  541, 540, 540,
  543, 542, 542,
  543, 542, 544,
  546, 545, 545,
  546, 545, 547,
  546, 548, 545,
  550, 549, 549,
  550, 549, 551,
  550, 552, 549,
  554, 553, 553,
  556, 555, 555,
  556, 555, 557,
  556, 558, 555,
  560, 559, 559,
  562, 561, 561,
  562, 561, 563,
  565, 564, 564,
  565, 564, 566,
  565, 567, 564,
  569, 568, 568,
  571, 570, 570,
  571, 570, 572,
  574, 573, 573,
  574, 573, 575,
  574, 576, 573,
  578, 577, 577,
  578, 577, 579,
  578, 580, 577,
  582, 581, 581,
  584, 583, 583,
  584, 583, 585,
  587, 586, 586,
  587, 586, 588,
  587, 589, 586,
  591, 590, 590,
  591, 590, 592,
  591, 593, 590,
  595, 594, 594,
  2, 1, 1,
  2, 1, 3,
  2, 4, 1,
  6, 5, 5,
  8, 7, 7,
  8, 7, 9,
  11, 10, 10,
  11, 10, 12,
  11, 13, 10,
  15, 14, 14,
  15, 14, 16,
  15, 17, 14,
  19, 18, 18,
  21, 20, 20,
  21, 20, 22,
  21, 23, 20,
  25, 24, 24,
  27, 26, 26,
  27, 26, 28,
  30, 29, 29,
  30, 29, 31,
  30, 32, 29,
  34, 33, 33,
  36, 35, 35,
  36, 35, 37,
  39, 38, 38,
  39, 38, 40,
  39, 41, 38,
  43, 42, 42,
  43, 42, 44,
  43, 45, 42,
  47, 46, 46,
  49, 48, 48,
  49, 48, 50,
  52, 51, 51,
  52, 51, 53,
  52, 54, 51,
  56, 55, 55,
  56, 55, 57,
  56, 58, 55,
  60, 59, 59,
  62, 61, 61,
  62, 61, 63,
  62, 64, 61,
  66, 65, 65,
  68, 67, 67,
  68, 67, 69,
  71, 70, 70,
  71, 70, 72,
  71, 73, 70,
  75, 74, 74,
  75, 74, 76,
  75, 77, 74,
  79, 78, 78,
  81, 80, 80,
  81, 80, 82,
  81, 83, 80,
  85, 84, 84,
  87, 86, 86,
  87, 86, 88,
  90, 89, 89,
  90, 89, 91,
  90, 92, 89,
  94, 93, 93,
  96, 95, 95,
  96, 95, 97,
  99, 98, 98,
  99, 98, 100,
  99, 101, 98,
  103, 102, 102,
  103, 102, 104,
  103, 105, 102,
  107, 106, 106,
  109, 108, 108,
  109, 108, 110,
  109, 111, 108,
  113, 112, 112,
  115, 114, 114,
  115, 114, 116,
  118, 117, 117,
  118, 117, 119,
  118, 120, 117,
  122, 121, 121,
  124, 123, 123,
  124, 123, 125,
  127, 126, 126,
  127, 126, 128,
  127, 129, 126,
  131, 130, 130,
  131, 130, 132,
  131, 133, 130,
  135, 134, 134,
  137, 136, 136,
  137, 136, 138,
  140, 139, 139,
  140, 139, 141,
  140, 142, 139,
  144, 143, 143,
  144, 143, 145,
  144, 146, 143,
  148, 147, 147,
  150, 149, 149,
  150, 149, 151,
  150, 152, 149,
  154, 153, 153,
  156, 155, 155,
  156, 155, 157,
  159, 158, 158,
  159, 158, 160,
  159, 161, 158,
  163, 162, 162,
  165, 164, 164,
  165, 164, 166,
  168, 167, 167,
  168, 167, 169,
  168, 170, 167,
  172, 171, 171,
  172, 171, 173,
  172, 174, 171,
  176, 175, 175,
  178, 177, 177,
  178, 177, 179,
  181, 180, 180,
  181, 180, 182,
  181, 183, 180,
  185, 184, 184,
  185, 184, 186,
  185, 187, 184,
  189, 188, 188,
  191, 190, 190,
  191, 190, 192,
  191, 193, 190,
  195, 194, 194,
  197, 196, 196,
  197, 196, 198,
  200, 199, 199,
  200, 199, 201,
  200, 202, 199,
  204, 203, 203,
  204, 203, 205,
  204, 206, 203,
  208, 207, 207,
  210, 209, 209,
  210, 209, 211,
  210, 212, 209,
  214, 213, 213,
  216, 215, 215,
  216, 215, 217,
  219, 218, 218,
  219, 218, 220,
  219, 221, 218,
  223, 222, 222,
  225, 224, 224,
  225, 224, 226,
  228, 227, 227,
  228, 227, 229,
  228, 230, 227,
  232, 231, 231,
  232, 231, 233,
  232, 234, 231,
  236, 235, 235,
  238, 237, 237,
  238, 237, 239,
  241, 240, 240,
  241, 240, 242,
  241, 243, 240,
  245, 244, 244,
  245, 244, 246,
  245, 247, 244,
  249, 248, 248,
  251, 250, 250,
  251, 250, 252,
  251, 253, 250,
  255, 254, 254,
  257, 256, 256,
  257, 256, 258,
  260, 259, 259,
  260, 259, 261,
  260, 262, 259,
  264, 263, 263,
  264, 263, 265,
  264, 266, 263,
  268, 267, 267,
  270, 269, 269,
  270, 269, 271,
  270, 272, 269,
  274, 273, 273,
  276, 275, 275,
  276, 275, 277
]);
d_nfa = array2d(1..595, 1..3, [
  {}, {}, {},
  {}, {}, {},
  {}, {}, {},
  {}, {}, {},
  {}, {}, {},
  {}, {}, {},
  {}, {}, {},
  {}, {}, {},
  {}, {}, {},
  {}, {}, {},
  {}, {}, {},
  {}, {}, {},
  {}, {}, {},
  {}, {}, {},
  {}, {}, {},
  {}, {}, {},
  {}, {}, {},
  {}, {}, {},
  {}, {}, {},
  {}, {}, {},
  {}, {}, {},
  {}, {}, {},
  {}, {}, {},
  {}, {}, {},
  {}, {}, {},
  {}, {}, {},
  {}, {}, {},
  {}, {}, {},
  {}, {}, {},
  {}, {}, {},
  {}, {}, {},
  {}, {}, {},
  {}, {}, {},
  {}, {}, {},
  {}, {}, {},
  {}, {}, {},
  {}, {}, {},
  {}, {}, {},
  {}, {}, {},
  {}, {}, {},
  {}, {}, {},
  {}, {}, {},
  {}, {}, {},
  {}, {}, {},
  {}, {}, {},
  {}, {}, {},
  {}, {}, {},
  {}, {}, {},
  {}, {}, {},
  {}, {}, {},
  {}, {}, {},
  {}, {}, {},
  {}, {}, {},
  {}, {}, {},
  {}, {}, {},
  {}, {}, {},
  {}, {}, {},
  {}, {}, {},
  {}, {}, {},
  {}, {}, {},
  {}, {}, {},
  {}, {}, {},
  {}, {}, {},
  {}, {}, {},
  {}, {}, {},
  {}, {}, {},
  {}, {}, {},
  {}, {}, {},
  {}, {}, {},
  {}, {}, {},
  {}, {}, {},
  {}, {}, {},
  {}, {}, {},
  {}, {}, {},
  {}, {}, {},
  {}, {}, {},
  {}, {}, {},
  {}, {}, {},
  {}, {}, {},
  {}, {}, {},
  {}, {}, {},
  {}, {}, {},
  {}, {}, {},
  {}, {}, {},
  {}, {}, {},
  {}, {}, {},
  {}, {}, {},
  {}, {}, {},
  {}, {}, {},
  {}, {}, {},
  {}, {}, {},
  {}, {}, {},
  {}, {}, {},
  {}, {}, {},
  {}, {}, {},
  {}, {}, {},
  {}, {}, {},
  {}, {}, {},
  {}, {}, {},
  {}, {}, {},
  {}, {}, {},
  {}, {}, {},
  {}, {}, {},
  {}, {}, {},
  {}, {}, {},
  {}, {}, {},
  {}, {}, {},
  {}, {}, {},
  {}, {}, {},
  {}, {}, {},
  {}, {}, {},
  {}, {}, {},
  {}, {}, {},
  {}, {}, {},
  {}, {}, {},
  {}, {}, {},
  {}, {}, {},
  {}, {}, {},
  {}, {}, {},
  {}, {}, {},
  {}, {}, {},
  {}, {}, {},
  {}, {}, {},
  {}, {}, {},
  {}, {}, {},
  {}, {}, {},
  {}, {}, {},
  {}, {}, {},
  {}, {}, {},
  {}, {}, {},
  {}, {}, {},
  {}, {}, {},
  {}, {}, {},
  {}, {}, {},
  {}, {}, {},
  {}, {}, {},
  {}, {}, {},
  {}, {}, {},
  {}, {}, {},
  {}, {}, {},
  {}, {}, {},
  {}, {}, {},
  {}, {}, {},
  {}, {}, {},
  {}, {}, {},
  {}, {}, {},
  {}, {}, {},
  {}, {}, {},
  {}, {}, {},
  {}, {}, {},
  {}, {}, {},
  {}, {}, {},
  {}, {}, {},
  {}, {}, {},
  {}, {}, {},
  {}, {}, {},
  {}, {}, {},
  {}, {}, {},
  {}, {}, {},
  {}, {}, {},
  {}, {}, {},
  {}, {}, {},
  {}, {}, {},
  {}, {}, {},
  {}, {}, {},
  {}, {}, {},
  {}, {}, {},
  {}, {}, {},
  {}, {}, {},
  {}, {}, {},
  {}, {}, {},
  {}, {}, {},
  {}, {}, {},
  {}, {}, {},
  {}, {}, {},
  {}, {}, {},
  {}, {}, {},
  {}, {}, {},
  {}, {}, {},
  {}, {}, {},
  {}, {}, {},
  {}, {}, {},
  {}, {}, {},
  {}, {}, {},
  {}, {}, {},
  {}, {}, {},
  {}, {}, {},
  {}, {}, {},
  {}, {}, {},
  {}, {}, {},
  {}, {}, {},
  {}, {}, {},
  {}, {}, {},
  {}, {}, {},
  {}, {}, {},
  {}, {}, {},
  {}, {}, {},
  {}, {}, {},
  {}, {}, {},
  {}, {}, {},
  {}, {}, {},
  {}, {}, {},
  {}, {}, {},
  {}, {}, {},
  {}, {}, {},
  {}, {}, {},
  {}, {}, {},
  {}, {}, {},
  {}, {}, {},
  {}, {}, {},
  {}, {}, {},
  {}, {}, {},
  {}, {}, {},
  {}, {}, {},
  {}, {}, {},
  {}, {}, {},
  {}, {}, {},
  {}, {}, {},
  {}, {}, {},
  {}, {}, {},
  {}, {}, {},
  {}, {}, {},
  {}, {}, {},
  {}, {}, {},
  {}, {}, {},
  {}, {}, {},
  {}, {}, {},
  {}, {}, {},
  {}, {}, {},
  {}, {}, {},
  {}, {}, {},
  {}, {}, {},
  {}, {}, {},
  {}, {}, {},
  {}, {}, {},
  {}, {}, {},
  {}, {}, {},
  {}, {}, {},
  {}, {}, {},
  {}, {}, {},
  {}, {}, {},
  {}, {}, {},
  {}, {}, {},
  {}, {}, {},
  {}, {}, {},
  {}, {}, {},
  {}, {}, {},
  {}, {}, {},
  {}, {}, {},
  {}, {}, {},
  {}, {}, {},
  {}, {}, {},
  {}, {}, {},
  {}, {}, {},
  {}, {}, {},
  {}, {}, {},
  {}, {}, {},
  {}, {}, {},
  {}, {}, {},
  {}, {}, {},
  {}, {}, {},
  {}, {}, {},
  {}, {}, {},
  {}, {}, {},
  {}, {}, {},
  {}, {}, {},
  {}, {}, {},
  {}, {}, {},
  {}, {}, {},
  {}, {}, {},
  {}, {}, {},
  {}, {}, {},
  {}, {}, {},
  {}, {}, {},
  {}, {}, {},
  {}, {}, {},
  {}, {}, {},
  {}, {}, {},
  {}, {}, {},
  {}, {}, {},
  {}, {}, {},
  {}, {}, {},
  {}, {}, {},
  {}, {}, {},
  {}, {}, {},
  {}, {}, {},
  {}, {}, {},
  {}, {}, {},
  {}, {}, {},
  {}, {}, {},
  {}, {}, {},
  {}, {}, {},
  {}, {}, {},
  {}, {}, {},
  {}, {}, {},
  {}, {}, {},
  {}, {}, {},
  {}, {}, {},
  {}, {}, {},
  {}, {}, {},
  {}, {}, {},
  {}, {}, {},
  {}, {}, {},
  {}, {}, {},
  {}, {}, {},
  {}, {}, {},
  {}, {}, {},
  {}, {}, {},
  {}, {}, {},
  {}, {}, {},
  {}, {}, {},
  {}, {}, {},
  {}, {}, {},
  {}, {}, {},
  {}, {}, {},
  {}, {}, {},
  {}, {}, {},
  {}, {}, {},
  {}, {}, {},
  {}, {}, {},
  {}, {}, {},
  {}, {}, {},
  {}, {}, {},
  {}, {}, {},
  {}, {}, {},
  {}, {}, {},
  {}, {}, {},
  {}, {}, {},
  {}, {}, {},
  {}, {}, {},
  {}, {}, {},
  {}, {}, {},
  {}, {}, {},
  {}, {}, {},
  {}, {}, {},
  {}, {}, {},
  {}, {}, {},
  {}, {}, {},
  {}, {}, {},
  {}, {}, {},
  {}, {}, {},
  {}, {}, {},
  {}, {}, {},
  {}, {}, {},
  {}, {}, {},
  {}, {}, {},
  {}, {}, {},
  {}, {}, {},
  {}, {}, {},
  {}, {}, {},
  {}, {}, {},
  {}, {}, {},
  {}, {}, {},
  {}, {}, {},
  {}, {}, {},
  {}, {}, {},
  {}, {}, {},
  {}, {}, {},
  {}, {}, {},
  {}, {}, {},
  {}, {}, {},
  {}, {}, {},
  {}, {}, {},
  {}, {}, {},
  {}, {}, {},
  {}, {}, {},
  {}, {}, {},
  {}, {}, {},
  {}, {}, {},
  {}, {}, {},
  {}, {}, {},
  {}, {}, {},
  {}, {}, {},
  {}, {}, {},
  {}, {}, {},
  {}, {}, {},
  {}, {}, {},
  {}, {}, {},
  {}, {}, {},
  {}, {}, {},
  {}, {}, {},
  {}, {}, {},
  {}, {}, {},
  {}, {}, {},
  {}, {}, {},
  {}, {}, {},
  {}, {}, {},
  {}, {}, {},
  {}, {}, {},
  {}, {}, {},
  {}, {}, {},
  {}, {}, {},
  {}, {}, {},
  {}, {}, {},
  {}, {}, {},
  {}, {}, {},
  {}, {}, {},
  {}, {}, {},
  {}, {}, {},
  {}, {}, {},
  {}, {}, {},
  {}, {}, {},
  {}, {}, {},
  {}, {}, {},
  {}, {}, {},
  {}, {}, {},
  {}, {}, {},
  {}, {}, {},
  {}, {}, {},
  {}, {}, {},
  {}, {}, {},
  {}, {}, {},
  {}, {}, {},
  {}, {}, {},
  {}, {}, {},
  {}, {}, {},
  {}, {}, {},
  {}, {}, {},
  {}, {}, {},
  {}, {}, {},
  {}, {}, {},
  {}, {}, {},
  {}, {}, {},
  {}, {}, {},
  {}, {}, {},
  {}, {}, {},
  {}, {}, {},
  {}, {}, {},
  {}, {}, {},
  {}, {}, {},
  {}, {}, {},
  {}, {}, {},
  {}, {}, {},
  {}, {}, {},
  {}, {}, {},
  {}, {}, {},
  {}, {}, {},
  {}, {}, {},
  {}, {}, {},
  {}, {}, {},
  {}, {}, {},
  {}, {}, {},
  {}, {}, {},
  {}, {}, {},
  {}, {}, {},
  {}, {}, {},
  {}, {}, {},
  {}, {}, {},
  {}, {}, {},
  {}, {}, {},
  {}, {}, {},
  {}, {}, {},
  {}, {}, {},
  {}, {}, {},
  {}, {}, {},
  {}, {}, {},
  {}, {}, {},
  {}, {}, {},
  {}, {}, {},
  {}, {}, {},
  {}, {}, {},
  {}, {}, {},
  {}, {}, {},
  {}, {}, {},
  {}, {}, {},
  {}, {}, {},
  {}, {}, {},
  {}, {}, {},
  {}, {}, {},
  {}, {}, {},
  {}, {}, {},
  {}, {}, {},
  {}, {}, {},
  {}, {}, {},
  {}, {}, {},
  {}, {}, {},
  {}, {}, {},
  {}, {}, {},
  {}, {}, {},
  {}, {}, {},
  {}, {}, {},
  {}, {}, {},
  {}, {}, {},
  {}, {}, {},
  {}, {}, {},
  {}, {}, {},
  {}, {}, {},
  {}, {}, {},
  {}, {}, {},
  {}, {}, {},
  {}, {}, {},
  {}, {}, {},
  {}, {}, {},
  {}, {}, {},
  {}, {}, {},
  {}, {}, {},
  {}, {}, {},
  {}, {}, {},
  {}, {}, {},
  {}, {}, {},
  {}, {}, {},
  {}, {}, {},
  {}, {}, {},
  {}, {}, {},
  {}, {}, {},
  {}, {}, {},
  {}, {}, {},
  {}, {}, {},
  {}, {}, {},
  {}, {}, {},
  {}, {}, {},
  {}, {}, {},
  {}, {}, {},
  {}, {}, {},
  {}, {}, {},
  {}, {}, {},
  {}, {}, {},
  {}, {}, {},
  {}, {}, {},
  {}, {}, {},
  {}, {}, {},
  {}, {}, {},
  {}, {}, {},
  {}, {}, {},
  {}, {}, {},
  {}, {}, {},
  {}, {}, {},
  {}, {}, {},
  {}, {}, {},
  {}, {}, {},
  {}, {}, {},
  {}, {}, {},
  {}, {}, {},
  {}, {}, {},
  {}, {}, {},
  {}, {}, {},
  {}, {}, {},
  {}, {}, {},
  {}, {}, {},
  {}, {}, {},
  {}, {}, {},
  {}, {}, {},
  {}, {}, {},
  {}, {}, {},
  {}, {}, {},
  {}, {}, {},
  {}, {}, {},
  {}, {}, {},
  {}, {}, {},
  {}, {}, {},
  {}, {}, {},
  {}, {}, {},
  {}, {}, {},
  {}, {}, {},
  {}, {}, {},
  {}, {}, {},
  {}, {}, {},
  {}, {}, {},
  {}, {}, {},
  {}, {}, {},
  {}, {}, {},
  {}, {}, {},
  {}, {}, {},
  {}, {}, {},
  {}, {}, {},
  {}, {}, {},
  {}, {}, {},
  {}, {}, {},
  {}, {}, {},
  {}, {}, {},
  {}, {}, {},
  {}, {}, {},
  {}, {}, {},
  {}, {}, {},
  {}, {}, {},
  {}, {}, {},
  {}, {}, {},
  {}, {}, {},
  {}, {}, {},
  {}, {}, {},
  {}, {}, {},
  {}, {}, {},
  {}, {}, {},
  {}, {}, {},
  {}, {}, {},
  {}, {}, {},
  {}, {}, {},
  {}, {}, {},
  {}, {}, {},
  {}, {}, {},
  {}, {}, {},
  {}, {}, {},
  {}, {}, {},
  {}, {}, {},
  {}, {}, {}
]);
